% Data file generated from RandomInstances/26_0.60_2.col DIMACS file
size = 26;

chi = 8;

adjacency = [|0,1,0,1,0,1,0,0,1,0,1,1,1,0,1,1,1,1,1,1,1,1,0,1,1,1,
|1,0,1,1,0,1,1,1,0,0,0,0,0,1,0,1,0,1,1,1,1,1,0,1,1,1,
|0,1,0,1,1,1,1,1,0,1,0,1,0,0,1,0,1,1,0,1,1,1,1,1,1,0,
|1,1,1,0,1,1,1,1,1,1,0,0,0,0,1,1,1,1,0,1,0,1,0,1,0,1,
|0,0,1,1,0,1,1,0,1,1,1,0,1,1,0,1,1,0,1,0,1,1,0,1,0,1,
|1,1,1,1,1,0,1,1,1,0,0,1,1,1,0,1,1,1,1,1,1,1,1,1,0,1,
|0,1,1,1,1,1,0,1,1,1,0,1,1,1,0,1,0,0,0,1,1,1,1,0,1,1,
|0,1,1,1,0,1,1,0,0,1,1,0,1,1,0,1,1,0,0,0,0,0,1,1,0,0,
|1,0,0,1,1,1,1,0,0,1,0,0,1,1,0,1,1,1,0,1,1,1,0,1,1,0,
|0,0,1,1,1,0,1,1,1,0,0,1,0,0,1,0,0,1,1,1,1,1,1,0,0,1,
|1,0,0,0,1,0,0,1,0,0,0,0,0,0,1,0,1,1,1,0,1,0,0,1,1,1,
|1,0,1,0,0,1,1,0,0,1,0,0,1,1,1,0,1,0,1,0,0,0,1,1,0,0,
|1,0,0,0,1,1,1,1,1,0,0,1,0,1,0,1,0,1,1,1,1,0,0,1,1,1,
|0,1,0,0,1,1,1,1,1,0,0,1,1,0,1,1,1,0,1,1,1,0,0,1,1,0,
|1,0,1,1,0,0,0,0,0,1,1,1,0,1,0,1,0,1,0,0,0,0,1,1,1,0,
|1,1,0,1,1,1,1,1,1,0,0,0,1,1,1,0,1,0,0,0,0,1,0,1,0,1,
|1,0,1,1,1,1,0,1,1,0,1,1,0,1,0,1,0,1,1,1,0,1,1,1,0,0,
|1,1,1,1,0,1,0,0,1,1,1,0,1,0,1,0,1,0,0,0,0,0,0,1,1,1,
|1,1,0,0,1,1,0,0,0,1,1,1,1,1,0,0,1,0,0,1,1,0,1,0,0,0,
|1,1,1,1,0,1,1,0,1,1,0,0,1,1,0,0,1,0,1,0,1,1,1,1,1,0,
|1,1,1,0,1,1,1,0,1,1,1,0,1,1,0,0,0,0,1,1,0,1,1,1,0,1,
|1,1,1,1,1,1,1,0,1,1,0,0,0,0,0,1,1,0,0,1,1,0,1,0,1,1,
|0,0,1,0,0,1,1,1,0,1,0,1,0,0,1,0,1,0,1,1,1,1,0,0,1,1,
|1,1,1,1,1,1,0,1,1,0,1,1,1,1,1,1,1,1,0,1,1,0,0,0,1,1,
|1,1,1,0,0,0,1,0,1,0,1,0,1,1,1,0,0,1,0,1,0,1,1,1,0,0,
|1,1,0,1,1,1,1,0,0,1,1,0,1,0,0,1,0,1,0,0,1,1,1,1,0,0,
|];